COLUMNS

passenger_count
pickup_ID
dropoff_ID
request_time_sec
pickup_district
dropoff_district
LDuals
IDuals
vehicle_ID
pick_position
drop_position

REQUESTS_INFO
3      536       575       32249     189       189       99        99        10        1         3         
3      860       738       32157     290       189       299       299       21        1         2         
3      850       711       32220     291       131       171       171       38        1         2         
3      768       507       32207     290       189       197       197       47        1         2         
3      328       395       32236     299       100       211       211       52        1         3         
1      718       557       32232     189       189       96        96        71        1         3         
1      758       686       32247     131       131       153       153       96        1         3         
3      395       811       32191     100       290       256       256       137       1         2         
1      812       699       32232     290       290       144       144       161       1         3         
1      771       394       32249     290       100       133       133       165       1         4         
4      410       248       32050     52        266       336       336       172       1         2         
1      377       580       32229     168       189       184.5     184.5     177       1         3         
1      905       467       32232     290       999       173       173       178       1         4         
2      485       648       32226     189       189       166       166       182       1         3         
1      352       698       32221     119       189       209       209       251       1         4         
2      373       484       32229     119       189       201       201       261       1         2         
1      376       483       32218     168       189       240       240       285       1         3         
1      325       116       32246     299       9         141       141       302       1         3         
1      991       97        32230     290       9         141       141       339       1         4         
2      792       560       32196     290       189       216       216       344       1         3         
1      904       134       32238     290       9         114       114       349       1         4         
1      296       480       32227     277       52        226       226       361       1         2         
1      365       180       32249     299       178       131       131       407       1         2         
2      395       549       32233     100       52        198       198       432       1         3         
1      802       1025      32142     291       291       261       261       451       1         2         
3      210       286       32248     266       299       102       102       479       1         2         
1      882       484       32195     290       189       195       195       627       1         3         
1      440       573       32208     168       189       217       217       642       1         2         
1      744       910       32185     290       290       183       183       659       1         2         
1      970       904       32225     290       290       170       170       678       1         2         
2      330       134       32237     127       9         158       158       704       1         2         
3      794       940       32246     290       291       172       172       749       1         3         
1      1047      727       32222     291       290       159       159       778       1         3         
1      727       1171      32231     290       192       128       128       784       1         3         
1      970       749       32230     290       290       179.5     179.5     790       1         3         
1      817       602       32217     290       189       210       210       818       1         2         
1      436       399       32244     100       168       174       174       868       1         3         
3      373       484       32229     119       189       201       201       880       1         2         
1      434       522       32190     52        52        220       220       899       1         3         
2      886       357       32155     290       277       307       307       907       1         2         
1      945       648       32206     50        189       252       252       913       1         4         
3      418       526       32209     168       52        229       229       916       1         2         
1      838       817       32156     290       290       296       296       972       1         2         
1      817       48        32245     290       98        179       179       975       1         4         
1      838       811       32163     290       290       293       293       996       1         2         
4      480       616       32195     52        131       219       219       998       1         2         
1      858       1068      32240     290       291       152       152       1028      1         3         
1      849       1243      32244     291       192       236       236       1044      1         3         
1      354       460       32198     119       189       270       270       1056      1         3         
1      328       462       32195     299       189       228       228       1065      1         5         
1      328       416       32213     299       100       210       210       1065      2         4         
3      392       430       32240     52        52        160       160       1093      1         3         
2      680       629       32194     290       189       177       177       1094      1         3         
1      371       250       32185     52        127       181       181       1101      1         3         
2      1152      925       32219     291       290       133       133       1185      1         4         
1      250       554       32235     127       189       115       115       1190      1         2         
4      835       904       32249     290       290       161       161       1211      1         2         
3      816       577       32247     290       189       180       180       1230      1         3         
1      790       749       32188     290       290       211       211       1259      1         2         
2      434       552       32245     52        189       187       187       1260      1         2         
2      936       601       32228     291       189       139       139       1261      1         3         
3      536       575       32249     189       189       99        99        1301      1         2         
1      439       352       32228     189       119       175       175       1309      1         3         
3      463       859       32224     168       290       169       169       1336      1         3         
1      1090      577       32221     291       189       216       216       1342      1         4         
2      645       504       32241     280       52        124       124       1352      1         2         
1      793       674       32235     290       189       189       189       1358      1         3         
2      852       719       32220     291       189       149       149       1405      1         2         
1      905       795       32232     290       290       174       174       1418      1         2         
1      331       718       32191     127       189       273       273       1431      1         2         
1      1054      1218      32132     84        84        302       302       1474      1         2         
1      793       535       32225     290       189       199       199       1745      1         3         
3      980       531       32233     291       189       159       159       1769      1         3         
1      376       416       32204     168       100       254       254       1806      1         2         
1      794       581       32238     290       189       180       180       1808      1         3         
1      745       673       32227     290       189       165       165       1832      1         2         
1      817       11        32232     290       999       192       192       1862      1         3         
2      816       577       32247     290       189       180       180       1888      1         3         
1      793       859       32171     290       290       280       280       1916      1         2         
1      915       415       32220     291       100       140       140       1932      1         3         
3      794       940       32246     290       291       172       172       1943      1         3         
1      234       372       32197     87        119       139       139       1969      1         3         
1      759       463       32249     131       168       139       139       1972      1         3         
4      782       627       32247     291       189       152       152       1975      1         2         
2      1026      693       32174     291       280       213       213       1990      1         2         
1      793       699       32197     290       290       254       254       1996      1         3         
1      412       175       32201     52        266       153       153       1997      1         3         
1      395       358       32153     100       168       294       294       1998      1         3         
2      629       408       32250     189       299       0         0         0         0         0         
1      889       551       32250     290       189       0         0         0         0         0         
1      929       925       32250     290       290       0         0         0         0         0         
1      475       438       32250     52        100       0         0         0         0         0         
3      461       421       32250     189       168       0         0         0         0         0         
1      345       579       32250     299       189       0         0         0         0         0         
1      175       331       32250     266       127       0         0         0         0         0         
1      558       691       32250     189       131       0         0         0         0         0         
1      462       527       32250     189       52        0         0         0         0         0         
1      507       594       32250     189       131       0         0         0         0         0         
1      117       189       32251     286       286       0         0         0         0         0         
2      408       695       32251     299       189       0         0         0         0         0         
1      398       19        32251     168       98        0         0         0         0         0         
1      463       599       32251     168       280       0         0         0         0         0         
1      512       394       32251     199       100       0         0         0         0         0         
1      373       545       32251     119       52        0         0         0         0         0         
1      690       265       32251     131       299       0         0         0         0         0         
3      527       616       32251     52        131       0         0         0         0         0         
1      386       488       32252     299       199       0         0         0         0         0         
1      556       231       32252     199       266       0         0         0         0         0         
1      483       510       32252     189       199       0         0         0         0         0         
1      675       727       32252     189       290       0         0         0         0         0         
1      1158      139       32252     84        57        0         0         0         0         0         
3      722       627       32252     290       189       0         0         0         0         0         
3      722       627       32252     290       189       0         0         0         0         0         
1      115       603       32253     9         189       0         0         0         0         0         
2      250       333       32253     127       119       0         0         0         0         0         
2      739       527       32253     189       52        0         0         0         0         0         
3      739       527       32253     189       52        0         0         0         0         0         
3      694       599       32253     189       280       0         0         0         0         0         
2      558       497       32253     189       999       0         0         0         0         0         
1      527       443       32253     52        168       0         0         0         0         0         
1      716       663       32253     189       131       0         0         0         0         0         
1      624       650       32253     189       189       0         0         0         0         0         
2      620       431       32254     131       52        0         0         0         0         0         
2      915       1027      32254     291       50        0         0         0         0         0         
4      276       908       32254     87        290       0         0         0         0         0         
1      549       693       32254     52        280       0         0         0         0         0         
1      324       476       32254     299       52        0         0         0         0         0         
1      1151      1068      32254     291       291       0         0         0         0         0         
1      662       665       32254     131       131       0         0         0         0         0         
2      416       484       32254     100       189       0         0         0         0         0         
3      416       484       32254     100       189       0         0         0         0         0         
2      647       295       32254     280       87        0         0         0         0         0         
1      136       412       32255     286       52        0         0         0         0         0         
2      578       460       32255     189       189       0         0         0         0         0         
3      578       460       32255     189       189       0         0         0         0         0         
1      142       20        32255     54        98        0         0         0         0         0         
2      557       488       32255     189       199       0         0         0         0         0         
1      1025      189       32255     291       286       0         0         0         0         0         
1      347       236       32255     299       87        0         0         0         0         0         
1      557       116       32255     189       9         0         0         0         0         0         
1      813       948       32256     290       290       0         0         0         0         0         
2      368       482       32256     299       189       0         0         0         0         0         
1      1187      544       32256     291       52        0         0         0         0         0         
1      295       526       32256     87        52        0         0         0         0         0         
2      417       310       32257     100       127       0         0         0         0         0         
3      940       789       32257     291       290       0         0         0         0         0         
1      649       929       32257     189       290       0         0         0         0         0         
1      334       627       32257     119       189       0         0         0         0         0         
1      710       521       32257     131       52        0         0         0         0         0         
1      929       1031      32257     290       50        0         0         0         0         0         
1      627       719       32257     189       189       0         0         0         0         0         
1      738       580       32257     189       189       0         0         0         0         0         
1      1089      896       32257     291       291       0         0         0         0         0         
3      417       310       32257     100       127       0         0         0         0         0         
2      675       748       32258     189       290       0         0         0         0         0         
3      927       973       32258     290       84        0         0         0         0         0         
1      782       968       32258     291       290       0         0         0         0         0         
1      1002      594       32258     291       131       0         0         0         0         0         
3      287       479       32258     299       52        0         0         0         0         0         
2      287       479       32258     299       52        0         0         0         0         0         
1      721       509       32258     290       199       0         0         0         0         0         
1      782       647       32259     291       280       0         0         0         0         0         
1      814       697       32259     290       189       0         0         0         0         0         
1      629       767       32259     189       290       0         0         0         0         0         
1      369       904       32259     52        290       0         0         0         0         0         
2      556       727       32259     199       290       0         0         0         0         0         
3      556       727       32259     199       290       0         0         0         0         0         
1      738       616       32260     189       131       0         0         0         0         0         
1      305       195       32260     299       207       0         0         0         0         0         
1      181       582       32260     178       189       0         0         0         0         0         
1      804       483       32260     291       189       0         0         0         0         0         
1      479       940       32260     52        291       0         0         0         0         0         
1      883       651       32260     290       189       0         0         0         0         0         
1      745       627       32260     290       189       0         0         0         0         0         
2      1206      1045      32260     192       291       0         0         0         0         0         
2      418       597       32260     168       131       0         0         0         0         0         
3      418       597       32260     168       131       0         0         0         0         0         
3      599       805       32260     280       291       0         0         0         0         0         
3      599       805       32260     280       291       0         0         0         0         0         
1      771       721       32260     290       290       0         0         0         0         0         
1      352       624       32261     119       189       0         0         0         0         0         
1      963       604       32261     50        189       0         0         0         0         0         
1      194       894       32261     207       291       0         0         0         0         0         
1      632       948       32261     189       290       0         0         0         0         0         
1      628       583       32262     189       189       0         0         0         0         0         
1      133       670       32262     9         280       0         0         0         0         0         
1      171       81        32262     286       98        0         0         0         0         0         
1      768       857       32263     290       290       0         0         0         0         0         
1      287       413       32263     299       52        0         0         0         0         0         
1      904       674       32263     290       189       0         0         0         0         0         
2      395       252       32263     100       206       0         0         0         0         0         
1      904       524       32263     290       52        0         0         0         0         0         
1      712       801       32263     131       291       0         0         0         0         0         
1      744       747       32263     290       290       0         0         0         0         0         
2      737       407       32264     189       299       0         0         0         0         0         
1      789       904       32264     290       290       0         0         0         0         0         
1      10        534       32264     98        199       0         0         0         0         0         
1      894       749       32264     291       290       0         0         0         0         0         
1      754       621       32264     999       280       0         0         0         0         0         
1      835       698       32264     290       189       0         0         0         0         0         
2      648       607       32265     189       189       0         0         0         0         0         
3      116       458       32265     9         52        0         0         0         0         0         
2      116       458       32265     9         52        0         0         0         0         0         
3      421       178       32265     168       178       0         0         0         0         0         
2      771       699       32265     290       290       0         0         0         0         0         
2      710       392       32265     131       52        0         0         0         0         0         
3      648       607       32265     189       189       0         0         0         0         0         
3      421       178       32265     168       178       0         0         0         0         0         
1      304       369       32266     299       52        0         0         0         0         0         
1      905       48        32266     290       98        0         0         0         0         0         
3      78        135       32267     9         286       0         0         0         0         0         
3      78        135       32267     9         286       0         0         0         0         0         
1      696       61        32267     189       98        0         0         0         0         0         
1      272       350       32267     127       127       0         0         0         0         0         
1      619       326       32267     131       299       0         0         0         0         0         
1      782       533       32267     291       199       0         0         0         0         0         
1      744       726       32267     290       290       0         0         0         0         0         
1      599       592       32267     280       52        0         0         0         0         0         
1      393       593       32267     52        52        0         0         0         0         0         
1      1158      1056      32267     84        84        0         0         0         0         0         
1      596       593       32267     131       52        0         0         0         0         0         
4      309       189       32268     127       286       0         0         0         0         0         
2      399       536       32268     168       189       0         0         0         0         0         
3      399       536       32268     168       189       0         0         0         0         0         
1      416       721       32268     100       290       0         0         0         0         0         
1      768       624       32268     290       189       0         0         0         0         0         
2      1128      1372      32268     291       129       0         0         0         0         0         
1      805       676       32268     291       189       0         0         0         0         0         
1      598       116       32268     189       9         0         0         0         0         0         
1      452       552       32268     52        189       0         0         0         0         0         
1      304       479       32268     299       52        0         0         0         0         0         
1      459       479       32268     189       52        0         0         0         0         0         
1      645       1225      32268     280       192       0         0         0         0         0         
1      573       593       32268     189       52        0         0         0         0         0         
4      904       674       32269     290       189       0         0         0         0         0         
1      766       858       32269     290       290       0         0         0         0         0         
4      1023      1026      32269     291       291       0         0         0         0         0         
1      644       761       32269     131       50        0         0         0         0         0         
1      175       504       32270     266       52        0         0         0         0         0         
1      161       399       32270     178       168       0         0         0         0         0         
1      481       501       32270     189       52        0         0         0         0         0         
3      576       711       32271     189       131       0         0         0         0         0         
2      604       835       32271     189       290       0         0         0         0         0         
1      650       925       32271     189       290       0         0         0         0         0         
2      576       711       32271     189       131       0         0         0         0         0         
1      375       291       32272     119       87        0         0         0         0         0         
1      549       717       32272     52        189       0         0         0         0         0         
1      963       625       32272     50        189       0         0         0         0         0         
1      835       721       32272     290       290       0         0         0         0         0         
1      840       624       32272     290       189       0         0         0         0         0         
1      460       478       32273     189       52        0         0         0         0         0         
3      1199      930       32273     84        999       0         0         0         0         0         
1      716       170       32273     189       286       0         0         0         0         0         
1      1090      628       32274     291       189       0         0         0         0         0         
2      603       599       32274     189       280       0         0         0         0         0         
1      768       811       32274     290       290       0         0         0         0         0         
3      795       908       32275     290       290       0         0         0         0         0         
1      526       670       32275     52        280       0         0         0         0         0         
2      795       908       32275     290       290       0         0         0         0         0         
3      578       671       32276     189       280       0         0         0         0         0         
2      578       671       32276     189       280       0         0         0         0         0         
1      272       486       32276     127       199       0         0         0         0         0         
1      549       640       32276     52        131       0         0         0         0         0         
1      551       718       32276     189       189       0         0         0         0         0         
1      788       627       32276     290       189       0         0         0         0         0         
2      556       529       32277     199       189       0         0         0         0         0         
3      512       443       32277     199       168       0         0         0         0         0         
3      512       443       32277     199       168       0         0         0         0         0         
1      582       668       32277     189       280       0         0         0         0         0         
1      549       592       32277     52        52        0         0         0         0         0         
1      863       772       32277     290       290       0         0         0         0         0         
2      412       367       32277     52        299       0         0         0         0         0         
1      287       438       32277     299       100       0         0         0         0         0         
3      669       604       32277     280       189       0         0         0         0         0         
1      1031      945       32277     50        50        0         0         0         0         0         
1      1068      626       32278     291       189       0         0         0         0         0         
1      1207      963       32278     192       50        0         0         0         0         0         
1      728       723       32278     290       290       0         0         0         0         0         
1      412       267       32279     52        266       0         0         0         0         0         
1      687       545       32279     131       52        0         0         0         0         0         
1      349       251       32279     127       127       0         0         0         0         0         
1      43        274       32279     9         87        0         0         0         0         0         
